128
100
41
14
42
1
8
44
10
44
25
17
26
14
42
18
49
26
1
2
50
8
25
35
1
39
44
15
39
6
12
11
9
25
17
30
13
19
31
29
15
10
11
50
26
40
33
25
23
13
5
36
21
31
19
7
19
44
12
44
50
32
41
16
38
34
47
24
50
23
11
11
24
10
16
21
50
45
19
50
5
11
34
48
11
36
32
7
24
43
35
1
30
13
2
2
8
29
45
1
12
3
5
47
30
14
19
12
4
36
24
2
13
24
46
48
29
19
8
3
33
39
15
27
1
1
28
36
1
26
